c "87498.clq"
p edge 100 1344
e 1 17
e 1 18
e 1 19
e 1 20
e 1 21
e 1 24
e 1 26
e 1 28
e 1 30
e 1 31
e 1 32
e 1 34
e 1 36
e 1 38
e 1 39
e 1 45
e 1 52
e 1 53
e 1 54
e 1 55
e 1 60
e 1 66
e 1 68
e 1 70
e 1 74
e 1 76
e 1 88
e 2 17
e 2 18
e 2 20
e 2 22
e 2 23
e 2 24
e 2 25
e 2 26
e 2 27
e 2 28
e 2 30
e 2 32
e 2 34
e 2 36
e 2 40
e 2 42
e 2 45
e 2 47
e 2 50
e 2 53
e 2 56
e 2 57
e 2 65
e 2 80
e 2 81
e 2 83
e 2 84
e 2 88
e 2 98
e 3 17
e 3 18
e 3 19
e 3 21
e 3 24
e 3 27
e 3 29
e 3 32
e 3 35
e 3 37
e 3 41
e 3 43
e 3 46
e 3 58
e 3 60
e 3 62
e 3 75
e 3 77
e 3 79
e 3 80
e 3 84
e 3 85
e 3 89
e 3 92
e 4 17
e 4 18
e 4 19
e 4 20
e 4 21
e 4 22
e 4 23
e 4 25
e 4 26
e 4 27
e 4 29
e 4 30
e 4 38
e 4 40
e 4 41
e 4 42
e 4 43
e 4 44
e 4 49
e 4 55
e 4 59
e 4 66
e 4 67
e 4 68
e 4 74
e 4 79
e 4 80
e 4 83
e 4 84
e 4 90
e 4 96
e 5 17
e 5 18
e 5 19
e 5 20
e 5 21
e 5 22
e 5 24
e 5 26
e 5 27
e 5 30
e 5 31
e 5 37
e 5 39
e 5 40
e 5 41
e 5 45
e 5 48
e 5 50
e 5 51
e 5 60
e 5 62
e 5 68
e 5 69
e 5 71
e 5 75
e 5 76
e 5 82
e 5 83
e 5 86
e 5 95
e 5 97
e 5 100
e 6 17
e 6 18
e 6 19
e 6 20
e 6 21
e 6 22
e 6 23
e 6 28
e 6 30
e 6 33
e 6 35
e 6 36
e 6 38
e 6 46
e 6 52
e 6 58
e 6 61
e 6 62
e 6 63
e 6 68
e 6 87
e 7 17
e 7 18
e 7 19
e 7 20
e 7 22
e 7 28
e 7 29
e 7 34
e 7 37
e 7 44
e 7 76
e 7 91
e 8 17
e 8 18
e 8 19
e 8 20
e 8 21
e 8 22
e 8 24
e 8 25
e 8 26
e 8 30
e 8 32
e 8 34
e 8 35
e 8 38
e 8 39
e 8 43
e 8 46
e 8 47
e 8 49
e 8 51
e 8 55
e 8 69
e 8 74
e 8 84
e 8 87
e 8 94
e 9 17
e 9 18
e 9 19
e 9 20
e 9 21
e 9 22
e 9 23
e 9 25
e 9 27
e 9 29
e 9 32
e 9 33
e 9 36
e 9 38
e 9 43
e 9 44
e 9 45
e 9 47
e 9 48
e 9 50
e 9 57
e 9 61
e 9 62
e 9 93
e 9 96
e 9 99
e 10 17
e 10 18
e 10 19
e 10 21
e 10 23
e 10 29
e 10 34
e 10 40
e 10 41
e 10 43
e 10 47
e 10 56
e 10 71
e 11 17
e 11 18
e 11 19
e 11 20
e 11 21
e 11 23
e 11 25
e 11 26
e 11 27
e 11 36
e 11 42
e 11 44
e 11 54
e 11 55
e 11 56
e 11 65
e 11 68
e 11 72
e 11 81
e 11 83
e 11 91
e 11 92
e 11 98
e 11 100
e 12 17
e 12 18
e 12 19
e 12 21
e 12 22
e 12 23
e 12 24
e 12 29
e 12 32
e 12 34
e 12 37
e 12 40
e 12 46
e 12 61
e 12 71
e 12 76
e 12 81
e 12 90
e 12 96
e 12 97
e 13 17
e 13 18
e 13 19
e 13 20
e 13 21
e 13 22
e 13 23
e 13 24
e 13 25
e 13 26
e 13 28
e 13 29
e 13 30
e 13 31
e 13 33
e 13 35
e 13 37
e 13 40
e 13 45
e 13 52
e 13 53
e 13 54
e 13 83
e 13 89
e 13 91
e 14 17
e 14 18
e 14 19
e 14 20
e 14 21
e 14 22
e 14 24
e 14 25
e 14 26
e 14 30
e 14 35
e 14 41
e 14 42
e 14 48
e 14 51
e 14 54
e 14 60
e 14 63
e 14 64
e 14 69
e 14 72
e 14 77
e 14 83
e 14 86
e 14 88
e 14 91
e 14 92
e 15 17
e 15 19
e 15 20
e 15 22
e 15 23
e 15 24
e 15 25
e 15 27
e 15 28
e 15 29
e 15 31
e 15 33
e 15 34
e 15 35
e 15 37
e 15 38
e 15 50
e 15 58
e 15 59
e 15 65
e 15 92
e 16 17
e 16 18
e 16 20
e 16 23
e 16 34
e 16 51
e 16 52
e 16 62
e 16 68
e 16 79
e 17 18
e 17 19
e 17 20
e 17 21
e 17 22
e 17 23
e 17 24
e 17 25
e 17 26
e 17 27
e 17 28
e 17 29
e 17 30
e 17 31
e 17 32
e 17 33
e 17 34
e 17 35
e 17 36
e 17 38
e 17 39
e 17 40
e 17 41
e 17 42
e 17 43
e 17 44
e 17 45
e 17 47
e 17 48
e 17 50
e 17 51
e 17 57
e 17 59
e 17 63
e 17 65
e 17 67
e 17 71
e 17 74
e 17 75
e 17 76
e 17 79
e 17 80
e 17 81
e 17 82
e 17 83
e 17 85
e 17 87
e 17 89
e 17 90
e 17 95
e 17 97
e 17 98
e 17 99
e 18 19
e 18 20
e 18 21
e 18 22
e 18 23
e 18 24
e 18 25
e 18 26
e 18 27
e 18 28
e 18 29
e 18 30
e 18 31
e 18 32
e 18 34
e 18 36
e 18 37
e 18 39
e 18 40
e 18 41
e 18 42
e 18 43
e 18 44
e 18 45
e 18 46
e 18 48
e 18 50
e 18 54
e 18 56
e 18 57
e 18 63
e 18 64
e 18 65
e 18 66
e 18 69
e 18 73
e 18 75
e 18 78
e 18 79
e 18 80
e 18 84
e 18 88
e 18 98
e 19 20
e 19 21
e 19 22
e 19 23
e 19 24
e 19 25
e 19 26
e 19 27
e 19 28
e 19 29
e 19 30
e 19 31
e 19 32
e 19 33
e 19 35
e 19 36
e 19 38
e 19 39
e 19 40
e 19 41
e 19 42
e 19 43
e 19 45
e 19 46
e 19 47
e 19 48
e 19 49
e 19 53
e 19 54
e 19 56
e 19 57
e 19 59
e 19 62
e 19 63
e 19 64
e 19 65
e 19 66
e 19 68
e 19 70
e 19 72
e 19 73
e 19 75
e 19 76
e 19 77
e 19 78
e 19 80
e 19 81
e 19 82
e 19 86
e 19 93
e 20 21
e 20 22
e 20 23
e 20 24
e 20 25
e 20 26
e 20 27
e 20 28
e 20 29
e 20 30
e 20 31
e 20 32
e 20 33
e 20 34
e 20 35
e 20 36
e 20 37
e 20 38
e 20 39
e 20 40
e 20 41
e 20 42
e 20 43
e 20 44
e 20 46
e 20 49
e 20 51
e 20 52
e 20 53
e 20 54
e 20 55
e 20 57
e 20 59
e 20 63
e 20 64
e 20 65
e 20 66
e 20 68
e 20 70
e 20 72
e 20 73
e 20 74
e 20 77
e 20 79
e 20 85
e 20 86
e 20 88
e 20 90
e 20 93
e 20 99
e 21 22
e 21 23
e 21 24
e 21 25
e 21 26
e 21 27
e 21 28
e 21 29
e 21 31
e 21 33
e 21 34
e 21 35
e 21 37
e 21 38
e 21 39
e 21 40
e 21 44
e 21 45
e 21 47
e 21 48
e 21 51
e 21 52
e 21 53
e 21 58
e 21 61
e 21 63
e 21 64
e 21 65
e 21 69
e 21 70
e 21 72
e 21 73
e 21 77
e 21 81
e 21 85
e 21 91
e 21 93
e 21 97
e 22 23
e 22 24
e 22 25
e 22 26
e 22 27
e 22 28
e 22 29
e 22 31
e 22 32
e 22 33
e 22 34
e 22 35
e 22 36
e 22 37
e 22 38
e 22 39
e 22 41
e 22 44
e 22 45
e 22 46
e 22 48
e 22 49
e 22 50
e 22 52
e 22 53
e 22 55
e 22 62
e 22 64
e 22 65
e 22 67
e 22 71
e 22 72
e 22 74
e 22 75
e 22 79
e 22 80
e 22 82
e 22 83
e 22 85
e 22 88
e 22 89
e 22 90
e 22 91
e 22 93
e 22 100
e 23 24
e 23 25
e 23 26
e 23 28
e 23 29
e 23 30
e 23 32
e 23 33
e 23 35
e 23 36
e 23 37
e 23 41
e 23 42
e 23 49
e 23 50
e 23 53
e 23 54
e 23 58
e 23 62
e 23 73
e 23 78
e 23 79
e 23 85
e 23 89
e 23 96
e 23 99
e 24 25
e 24 26
e 24 27
e 24 28
e 24 30
e 24 31
e 24 35
e 24 37
e 24 39
e 24 40
e 24 44
e 24 46
e 24 53
e 24 54
e 24 58
e 24 63
e 24 65
e 24 68
e 24 70
e 24 73
e 24 75
e 24 76
e 24 79
e 24 85
e 25 27
e 25 31
e 25 32
e 25 33
e 25 34
e 25 36
e 25 39
e 25 43
e 25 55
e 25 56
e 25 61
e 25 64
e 25 66
e 25 69
e 25 70
e 25 76
e 25 80
e 25 82
e 25 83
e 25 85
e 25 87
e 25 90
e 25 91
e 25 93
e 25 96
e 25 100
e 26 27
e 26 28
e 26 31
e 26 33
e 26 36
e 26 37
e 26 38
e 26 39
e 26 42
e 26 44
e 26 49
e 26 50
e 26 52
e 26 53
e 26 54
e 26 57
e 26 58
e 26 67
e 26 68
e 26 69
e 26 71
e 26 77
e 26 78
e 26 87
e 26 92
e 26 94
e 26 98
e 26 100
e 27 28
e 27 29
e 27 30
e 27 31
e 27 32
e 27 33
e 27 34
e 27 35
e 27 38
e 27 40
e 27 41
e 27 42
e 27 46
e 27 52
e 27 53
e 27 56
e 27 59
e 27 62
e 27 64
e 27 69
e 27 70
e 27 73
e 27 77
e 27 78
e 27 80
e 27 84
e 27 86
e 27 89
e 27 90
e 27 93
e 28 30
e 28 33
e 28 36
e 28 39
e 28 43
e 28 48
e 28 51
e 28 56
e 28 57
e 28 58
e 28 63
e 28 74
e 28 86
e 28 94
e 28 95
e 29 31
e 29 32
e 29 34
e 29 35
e 29 37
e 29 38
e 29 39
e 29 41
e 29 43
e 29 48
e 29 49
e 29 51
e 29 52
e 29 53
e 29 55
e 29 58
e 29 59
e 29 61
e 29 62
e 29 63
e 29 64
e 29 68
e 29 69
e 29 73
e 29 75
e 29 76
e 29 81
e 29 84
e 29 85
e 29 89
e 29 91
e 29 92
e 29 95
e 29 98
e 30 31
e 30 36
e 30 37
e 30 43
e 30 46
e 30 48
e 30 49
e 30 51
e 30 52
e 30 55
e 30 61
e 30 66
e 30 68
e 30 71
e 30 75
e 30 76
e 30 77
e 30 81
e 30 87
e 30 88
e 30 99
e 31 32
e 31 33
e 31 36
e 31 38
e 31 39
e 31 40
e 31 44
e 31 46
e 31 47
e 31 53
e 31 61
e 31 65
e 31 66
e 31 67
e 31 68
e 31 70
e 31 72
e 31 74
e 31 76
e 31 77
e 31 81
e 31 82
e 31 86
e 31 89
e 31 91
e 31 95
e 32 33
e 32 35
e 32 38
e 32 42
e 32 48
e 32 52
e 32 58
e 32 59
e 32 60
e 32 61
e 32 62
e 32 65
e 32 66
e 32 75
e 32 78
e 32 83
e 32 87
e 32 88
e 32 93
e 32 96
e 32 100
e 33 37
e 33 47
e 33 56
e 33 59
e 33 61
e 33 67
e 33 69
e 33 77
e 33 79
e 33 80
e 33 87
e 33 88
e 33 90
e 34 40
e 34 42
e 34 44
e 34 45
e 34 50
e 34 56
e 34 57
e 34 64
e 34 70
e 34 72
e 34 78
e 34 79
e 34 81
e 34 83
e 34 94
e 34 96
e 34 98
e 34 99
e 35 39
e 35 43
e 35 44
e 35 45
e 35 46
e 35 49
e 35 50
e 35 56
e 35 59
e 35 66
e 35 72
e 35 73
e 35 76
e 35 77
e 35 80
e 35 82
e 35 83
e 35 87
e 35 92
e 35 97
e 35 99
e 36 41
e 36 42
e 36 46
e 36 48
e 36 49
e 36 50
e 36 51
e 36 58
e 36 60
e 36 61
e 36 74
e 36 86
e 36 88
e 36 96
e 37 46
e 37 47
e 37 48
e 37 59
e 37 61
e 37 64
e 37 67
e 37 80
e 37 82
e 37 88
e 37 92
e 37 94
e 37 95
e 38 43
e 38 46
e 38 49
e 38 54
e 38 55
e 38 57
e 38 61
e 38 62
e 38 64
e 38 73
e 38 81
e 38 82
e 38 85
e 38 87
e 38 93
e 38 100
e 39 40
e 39 41
e 39 45
e 39 47
e 39 49
e 39 50
e 39 51
e 39 52
e 39 56
e 39 57
e 39 59
e 39 60
e 39 62
e 39 63
e 39 72
e 39 74
e 39 82
e 39 84
e 39 86
e 39 90
e 39 91
e 39 93
e 39 95
e 39 99
e 39 100
e 40 41
e 40 42
e 40 44
e 40 45
e 40 49
e 40 58
e 40 67
e 40 70
e 40 73
e 40 75
e 40 76
e 40 77
e 40 84
e 40 87
e 40 89
e 40 100
e 41 42
e 41 47
e 41 50
e 41 51
e 41 53
e 41 54
e 41 57
e 41 59
e 41 60
e 41 63
e 41 67
e 41 71
e 41 82
e 41 89
e 41 93
e 41 99
e 42 43
e 42 44
e 42 45
e 42 47
e 42 50
e 42 52
e 42 55
e 42 57
e 42 58
e 42 59
e 42 62
e 42 70
e 42 72
e 42 73
e 42 75
e 42 78
e 42 84
e 42 92
e 42 97
e 42 99
e 43 52
e 43 55
e 43 65
e 43 66
e 43 74
e 43 75
e 44 45
e 44 47
e 44 48
e 44 49
e 44 51
e 44 55
e 44 58
e 44 60
e 44 67
e 44 71
e 44 73
e 44 98
e 44 100
e 45 47
e 45 48
e 45 51
e 45 56
e 45 57
e 45 60
e 45 68
e 45 69
e 45 70
e 45 71
e 45 78
e 45 79
e 45 82
e 45 94
e 45 99
e 46 47
e 46 52
e 46 53
e 46 57
e 46 60
e 46 64
e 46 72
e 46 73
e 46 82
e 47 51
e 47 55
e 47 60
e 47 61
e 47 62
e 47 64
e 47 66
e 47 67
e 47 69
e 47 76
e 47 78
e 47 81
e 47 82
e 47 84
e 47 89
e 48 49
e 48 50
e 48 54
e 48 61
e 48 71
e 48 73
e 48 79
e 48 85
e 49 54
e 49 55
e 49 56
e 49 60
e 49 63
e 49 65
e 49 71
e 49 75
e 49 76
e 49 77
e 49 83
e 49 88
e 49 91
e 49 92
e 49 95
e 49 97
e 50 54
e 50 63
e 50 67
e 50 69
e 50 74
e 50 75
e 50 87
e 50 91
e 50 92
e 51 59
e 51 65
e 51 67
e 51 71
e 51 72
e 51 80
e 51 93
e 51 97
e 51 98
e 52 53
e 52 54
e 52 56
e 52 57
e 52 58
e 52 60
e 52 74
e 52 80
e 52 86
e 52 90
e 52 99
e 53 55
e 53 56
e 53 66
e 53 70
e 53 71
e 53 72
e 53 81
e 53 85
e 53 89
e 53 90
e 53 96
e 54 61
e 54 68
e 54 91
e 54 94
e 55 58
e 55 78
e 55 80
e 55 82
e 55 84
e 55 85
e 55 88
e 55 89
e 56 59
e 56 60
e 56 66
e 56 67
e 56 69
e 56 72
e 56 81
e 56 90
e 56 94
e 57 65
e 57 71
e 57 73
e 57 79
e 57 83
e 57 90
e 57 97
e 57 98
e 58 66
e 58 67
e 58 75
e 58 77
e 58 80
e 58 97
e 59 60
e 59 63
e 59 69
e 59 70
e 59 84
e 59 86
e 59 92
e 59 93
e 60 62
e 60 74
e 60 78
e 60 92
e 60 96
e 60 97
e 61 64
e 61 77
e 61 78
e 61 93
e 62 63
e 62 67
e 62 81
e 62 92
e 62 97
e 63 64
e 63 87
e 63 95
e 64 66
e 64 70
e 64 71
e 64 89
e 64 99
e 64 100
e 65 83
e 65 84
e 65 85
e 65 86
e 65 91
e 65 97
e 66 95
e 67 68
e 67 77
e 67 78
e 67 92
e 67 96
e 68 69
e 68 70
e 68 72
e 68 94
e 69 85
e 69 93
e 69 94
e 69 96
e 70 92
e 71 74
e 71 100
e 72 76
e 72 82
e 72 84
e 72 93
e 72 94
e 72 97
e 72 100
e 73 74
e 73 78
e 74 78
e 74 79
e 74 87
e 74 88
e 75 79
e 75 86
e 75 91
e 75 96
e 75 99
e 76 86
e 76 95
e 77 86
e 78 83
e 78 88
e 78 90
e 79 84
e 79 86
e 79 94
e 79 95
e 79 99
e 80 81
e 80 85
e 80 94
e 80 98
e 82 87
e 82 95
e 82 100
e 83 89
e 83 91
e 83 96
e 84 87
e 84 90
e 84 98
e 85 89
e 85 94
e 85 95
e 85 100
e 87 88
e 88 94
e 88 98
e 89 90
e 89 94
e 89 95
e 89 98
e 90 95
e 90 97
e 92 98
e 92 100
e 93 96
e 94 97
e 95 96
e 95 99
e 97 98
